Project2/ellip.asapalap_equations.lp
min: a1 + a2;
c1: X15 = 1;
c2: X25 = 1;
c3: X38 = 1;
c4: X48 = 1;
c5: X511 + X512= 1;
c6: X611 + X612 + X613= 1;
c7: X712 = 1;
c8: X812 = 1;
c9: X91 = 1;
c10: X101 + X102 + X103= 1;
c11: X112 = 1;
c12: X123 = 1;
c13: X134 = 1;
c14: X146 = 1;
c15: X156 = 1;
c16: X167 = 1;
c17: X177 + X178 + X179 + X1710 + X1711 + X1712 + X1713= 1;
c18: X187 = 1;
c19: X199 = 1;
c20: X209 = 1;
c21: X2110 + X2111= 1;
c22: X2210 = 1;
c23: X2310 = 1;
c24: X2410 + X2411 + X2412= 1;
c25: X2511 = 1;
c26: X2611 = 1;
c27: X2712 + X2713= 1;
c28: X2813 = 1;
c29: X2913 = 1;
c30: X3013 + X3014= 1;
c31: X3114 = 1;
c32: X328 + X329 + X3210 + X3211 + X3212 + X3213 + X3214= 1;
c33: X3314 = 1;
c34: X3412 + X3413 + X3414= 1;
c35: X3514 = 1;
c36: X3614 = 1;
c37: X3712 + X3713 + X3714= 1;
c38: X115 = 1;

c39: X15 + X25 - a1 <= 0;
c40: X38 + X48 - a1 <= 0;
c41: X511 + X611 - a1 <= 0;
c42: X512 + X612 + X712 + X812 - a1 <= 0;

c43: X91 + X101 - a2 <= 0;
c44: X102 + X112 - a2 <= 0;
c45: X103 + X123 - a2 <= 0;
c46: X134 - a2 <= 0;
c47: X146 + X156 - a2 <= 0;
c48: X167 + X177 + X187 - a2 <= 0;
c49: X178 + X328 - a2 <= 0;
c50: X179 + X199 + X209 + X329 - a2 <= 0;
c51: X1710 + X2110 + X2210 + X2310 + X2410 + X3210 - a2 <= 0;
c52: X1711 + X2111 + X2411 + X2511 + X2611 + X3211 - a2 <= 0;
c53: X1712 + X2412 + X2712 + X3212 + X3412 + X3712 - a2 <= 0;
c54: X1713 + X2713 + X2813 + X2913 + X3013 + X3213 + X3413 + X3713 - a2 <= 0;
c55: X3014 + X3114 + X3214 + X3314 + X3414 + X3514 + X3614 + X3714 - a2 <= 0;

int a1, a2, X511, X512, X611, X612, X613, X101, X102, X103, X177, X178, X179, X1710, X1711, X1712, X1713, X2110, X2111, X2410, X2411, X2412, X2712, X2713, X3013, X3014, X328, X329, X3210, X3211, X3212, X3213, X3214, X3412, X3413, X3414, X3712, X3713, X3714;
