Project2/ellip.asapalap_equations.lp.output

Value of objective function: 6

Actual values of the variables:
a1                              2
a2                              4
X15                             1
X25                             1
X38                             1
X48                             1
X511                            1
X512                            0
X611                            1
X612                            0
X613                            0
X712                            1
X812                            1
X91                             1
X101                            1
X102                            0
X103                            0
X112                            1
X123                            1
X134                            1
X146                            1
X156                            1
X167                            1
X177                            1
X178                            0
X179                            0
X1710                           0
X1711                           0
X1712                           0
X1713                           0
X187                            1
X199                            1
X209                            1
X2110                           0
X2111                           1
X2210                           1
X2310                           1
X2410                           0
X2411                           0
X2412                           1
X2511                           1
X2611                           1
X2712                           0
X2713                           1
X2813                           1
X2913                           1
X3013                           1
X3014                           0
X3114                           1
X328                            1
X329                            0
X3210                           0
X3211                           0
X3212                           0
X3213                           0
X3214                           0
X3314                           1
X3412                           1
X3413                           0
X3414                           0
X3514                           1
X3614                           1
X3712                           1
X3713                           0
X3714                           0
X115                            1
